p wcnf 184 92 93 
1 -132 147 0 
1 4 -117 0 
1 82 -143 0 
1 59 181 0 
1 -8 152 0 
1 -144 -51 0 
1 -175 124 0 
1 179 101 0 
1 115 -165 0 
1 72 -77 0 
1 -179 -148 0 
1 -165 -161 0 
1 118 147 0 
1 -85 38 0 
1 -5 -163 0 
1 19 42 0 
1 184 157 0 
1 -178 159 0 
1 -153 -170 0 
1 97 179 0 
1 -100 -62 0 
1 165 143 0 
1 -158 -58 0 
1 92 99 0 
1 71 -164 0 
1 -172 -68 0 
1 145 60 0 
1 132 -43 0 
1 -178 50 0 
1 180 -178 0 
1 39 -164 0 
1 108 101 0 
1 112 145 0 
1 -80 71 0 
1 -150 -54 0 
1 67 54 0 
1 98 -134 0 
1 136 178 0 
1 -154 169 0 
1 -35 167 0 
1 178 98 0 
1 48 39 0 
1 130 -150 0 
1 -152 -62 0 
1 98 63 0 
1 24 74 0 
1 160 -90 0 
1 -167 19 0 
1 -13 141 0 
1 108 -100 0 
1 -144 40 0 
1 -175 -59 0 
1 -71 114 0 
1 107 -12 0 
1 149 81 0 
1 55 -56 0 
1 26 18 0 
1 -118 109 0 
1 -24 -68 0 
1 99 18 0 
1 -51 -23 0 
1 -8 -154 0 
1 -168 31 0 
1 118 -48 0 
1 71 35 0 
1 -70 -30 0 
1 -89 -164 0 
1 75 -165 0 
1 62 -140 0 
1 -65 80 0 
1 153 -159 0 
1 96 -50 0 
1 -111 -60 0 
1 -111 177 0 
1 134 51 0 
1 25 -98 0 
1 71 159 0 
1 -28 96 0 
1 -88 120 0 
1 3 -107 0 
1 -43 137 0 
1 160 -1 0 
1 20 -163 0 
1 161 74 0 
1 125 -6 0 
1 -7 -73 0 
1 78 1 0 
1 12 -19 0 
1 -45 47 0 
1 160 63 0 
1 -13 -25 0 
1 95 122 0 
